%nprocs=12
%mem=32000MB

# opt b3lyp/6-31g** freq=noraman

ts

0 1
7        1.494948961     -2.030401231     -0.148751476
6        1.507735961     -0.635687231     -0.094747476
6        0.291894961      0.008753769     -0.045219476
6       -0.938531039     -0.686445231     -0.066770476
6       -0.897912039     -2.124679231     -0.110910476
6        0.362818961     -2.733582231     -0.154493476
6       -2.197618039     -0.036676231     -0.034397476
6       -3.365317039     -0.809777231     -0.054810476
6       -3.337776039     -2.202671231     -0.095121476
6       -2.101650039     -2.897194231     -0.111192476
8       -2.182549191     -4.209042979      0.064324392
8       -4.436982039     -2.994013231     -0.113196476
6       -4.531998206     -2.882357942      1.307826192
1        0.261734961      1.085788769      0.033300524
1        0.478289961     -3.815516231     -0.188133476
1       -4.307852039     -0.278433231     -0.032921476
1       -2.907995453     -4.902321762      0.129918931
1       -3.515205556     -2.704633493      1.656704670
1       -5.170222071     -2.041071885      1.599640082
1       -4.915201686     -3.805973968      1.755390352
17      -3.914103772     -7.122535526      0.188060472
1       -2.255942937      1.041009111      0.005508797
6        2.783107674     -2.738494459     -0.136458791
1        2.735961215     -3.661752678     -0.724333455
1        3.100511030     -2.970560349      0.886110429
1        3.498277676     -2.054257345     -0.592003416



